(set-info :smt-lib-version 2.6)
(set-logic QF_NIA)
(set-info :source |
Generated by: Cristina Borralleras, Daniel Larraz, Albert Oliveras, Enric Rodriguez-Carbonell, Albert Rubio
Generated on: 2017-04-27
Generator: VeryMax
Application: Termination proving
Target solver: barcelogic
|)
(set-info :license "https://creativecommons.org/licenses/by/4.0/")
(set-info :category "industrial")
(set-info :status sat)
(declare-fun Nl2arg11 () Int)
(declare-fun Nl2arg21 () Int)
(declare-fun Nl2arg31 () Int)
(declare-fun Nl2arg41 () Int)
(declare-fun Nl2arg51 () Int)
(declare-fun Nl2arg61 () Int)
(declare-fun Nl2arg71 () Int)
(declare-fun Nl2arg81 () Int)
(declare-fun Nl2arg91 () Int)
(declare-fun Nl2arg101 () Int)
(declare-fun Nl2arg111 () Int)
(declare-fun Nl2arg121 () Int)
(declare-fun Nl2arg131 () Int)
(declare-fun Nl2arg141 () Int)
(declare-fun Nl2arg151 () Int)
(declare-fun Nl2arg161 () Int)
(declare-fun Nl2arg12 () Int)
(declare-fun Nl2arg22 () Int)
(declare-fun Nl2arg32 () Int)
(declare-fun Nl2arg42 () Int)
(declare-fun Nl2arg52 () Int)
(declare-fun Nl2arg62 () Int)
(declare-fun Nl2arg72 () Int)
(declare-fun Nl2arg82 () Int)
(declare-fun Nl2arg92 () Int)
(declare-fun Nl2arg102 () Int)
(declare-fun Nl2arg112 () Int)
(declare-fun Nl2arg122 () Int)
(declare-fun Nl2arg132 () Int)
(declare-fun Nl2arg142 () Int)
(declare-fun Nl2arg152 () Int)
(declare-fun Nl2arg162 () Int)
(declare-fun lam0n0 () Int)
(declare-fun lam0n1 () Int)
(declare-fun lam0n2 () Int)
(declare-fun lam0n3 () Int)
(declare-fun lam0n4 () Int)
(declare-fun lam0n5 () Int)
(declare-fun lam0n6 () Int)
(declare-fun lam0n7 () Int)
(declare-fun lam0n8 () Int)
(declare-fun lam0n9 () Int)
(declare-fun lam0n10 () Int)
(declare-fun lam0n11 () Int)
(declare-fun lam0n12 () Int)
(declare-fun lam0n13 () Int)
(declare-fun lam0n14 () Int)
(declare-fun lam0n15 () Int)
(declare-fun lam0n16 () Int)
(declare-fun Nl2CT1 () Int)
(declare-fun Nl2CT2 () Int)
(declare-fun lam1n0 () Int)
(declare-fun lam1n1 () Int)
(declare-fun lam1n2 () Int)
(declare-fun lam1n3 () Int)
(declare-fun lam1n4 () Int)
(declare-fun lam1n5 () Int)
(declare-fun lam1n6 () Int)
(declare-fun lam1n7 () Int)
(declare-fun lam1n8 () Int)
(declare-fun lam1n9 () Int)
(declare-fun lam1n10 () Int)
(declare-fun lam1n11 () Int)
(declare-fun lam1n12 () Int)
(declare-fun lam1n13 () Int)
(declare-fun lam1n14 () Int)
(declare-fun lam1n15 () Int)
(declare-fun lam1n16 () Int)
(declare-fun lam2n0 () Int)
(declare-fun lam2n1 () Int)
(declare-fun lam2n2 () Int)
(declare-fun lam2n3 () Int)
(declare-fun lam2n4 () Int)
(declare-fun lam2n5 () Int)
(declare-fun lam2n6 () Int)
(declare-fun lam2n7 () Int)
(declare-fun lam2n8 () Int)
(declare-fun lam2n9 () Int)
(declare-fun lam2n10 () Int)
(declare-fun lam2n11 () Int)
(declare-fun lam2n12 () Int)
(declare-fun lam2n13 () Int)
(declare-fun lam2n14 () Int)
(declare-fun lam2n15 () Int)
(declare-fun lam2n16 () Int)
(declare-fun lam3n0 () Int)
(declare-fun lam3n1 () Int)
(declare-fun lam3n2 () Int)
(declare-fun lam3n3 () Int)
(declare-fun lam3n4 () Int)
(declare-fun lam3n5 () Int)
(declare-fun lam3n6 () Int)
(declare-fun lam3n7 () Int)
(declare-fun lam3n8 () Int)
(declare-fun lam3n9 () Int)
(declare-fun lam3n10 () Int)
(declare-fun lam4n0 () Int)
(declare-fun lam4n1 () Int)
(declare-fun lam4n2 () Int)
(declare-fun lam4n3 () Int)
(declare-fun lam4n4 () Int)
(declare-fun lam4n5 () Int)
(declare-fun lam4n6 () Int)
(declare-fun lam4n7 () Int)
(declare-fun lam4n8 () Int)
(declare-fun lam4n9 () Int)
(declare-fun lam4n10 () Int)
(declare-fun undef1 () Int)
(declare-fun undef4417 () Int)
(declare-fun undef4418 () Int)
(declare-fun undef2 () Int)
(declare-fun undef7 () Int)
(declare-fun undef842 () Int)
(declare-fun arg3 () Int)
(declare-fun arg6 () Int)
(declare-fun undef5 () Int)
(declare-fun undef8 () Int)
(declare-fun undef9 () Int)
(declare-fun undef10 () Int)
(declare-fun undef11 () Int)
(declare-fun undef12 () Int)
(declare-fun undef13 () Int)
(declare-fun undef14 () Int)
(declare-fun undef15 () Int)
(declare-fun undef16 () Int)
(declare-fun lam5n0 () Int)
(declare-fun lam5n1 () Int)
(declare-fun lam5n2 () Int)
(declare-fun lam5n3 () Int)
(declare-fun lam5n4 () Int)
(declare-fun lam5n5 () Int)
(declare-fun lam5n6 () Int)
(declare-fun lam5n7 () Int)
(declare-fun lam5n8 () Int)
(declare-fun lam5n9 () Int)
(declare-fun lam5n10 () Int)
(declare-fun lam6n0 () Int)
(declare-fun lam6n1 () Int)
(declare-fun lam6n2 () Int)
(declare-fun lam6n3 () Int)
(declare-fun lam6n4 () Int)
(declare-fun lam6n5 () Int)
(declare-fun lam6n6 () Int)
(declare-fun lam6n7 () Int)
(declare-fun lam6n8 () Int)
(declare-fun lam6n9 () Int)
(declare-fun lam6n10 () Int)
(assert ( and ( <= ( - 1 ) Nl2arg11 ) ( <= Nl2arg11 1 ) ( <= ( - 1 ) Nl2arg21 ) ( <= Nl2arg21 1 ) ( <= ( - 1 ) Nl2arg31 ) ( <= Nl2arg31 1 ) ( <= ( - 1 ) Nl2arg41 ) ( <= Nl2arg41 1 ) ( <= ( - 1 ) Nl2arg51 ) ( <= Nl2arg51 1 ) ( <= ( - 1 ) Nl2arg61 ) ( <= Nl2arg61 1 ) ( <= ( - 1 ) Nl2arg71 ) ( <= Nl2arg71 1 ) ( <= ( - 1 ) Nl2arg81 ) ( <= Nl2arg81 1 ) ( <= ( - 1 ) Nl2arg91 ) ( <= Nl2arg91 1 ) ( <= ( - 1 ) Nl2arg101 ) ( <= Nl2arg101 1 ) ( <= ( - 1 ) Nl2arg111 ) ( <= Nl2arg111 1 ) ( <= ( - 1 ) Nl2arg121 ) ( <= Nl2arg121 1 ) ( <= ( - 1 ) Nl2arg131 ) ( <= Nl2arg131 1 ) ( <= ( - 1 ) Nl2arg141 ) ( <= Nl2arg141 1 ) ( <= ( - 1 ) Nl2arg151 ) ( <= Nl2arg151 1 ) ( <= ( - 1 ) Nl2arg161 ) ( <= Nl2arg161 1 ) ( <= ( - 1 ) Nl2arg12 ) ( <= Nl2arg12 1 ) ( <= ( - 1 ) Nl2arg22 ) ( <= Nl2arg22 1 ) ( <= ( - 1 ) Nl2arg32 ) ( <= Nl2arg32 1 ) ( <= ( - 1 ) Nl2arg42 ) ( <= Nl2arg42 1 ) ( <= ( - 1 ) Nl2arg52 ) ( <= Nl2arg52 1 ) ( <= ( - 1 ) Nl2arg62 ) ( <= Nl2arg62 1 ) ( <= ( - 1 ) Nl2arg72 ) ( <= Nl2arg72 1 ) ( <= ( - 1 ) Nl2arg82 ) ( <= Nl2arg82 1 ) ( <= ( - 1 ) Nl2arg92 ) ( <= Nl2arg92 1 ) ( <= ( - 1 ) Nl2arg102 ) ( <= Nl2arg102 1 ) ( <= ( - 1 ) Nl2arg112 ) ( <= Nl2arg112 1 ) ( <= ( - 1 ) Nl2arg122 ) ( <= Nl2arg122 1 ) ( <= ( - 1 ) Nl2arg132 ) ( <= Nl2arg132 1 ) ( <= ( - 1 ) Nl2arg142 ) ( <= Nl2arg142 1 ) ( <= ( - 1 ) Nl2arg152 ) ( <= Nl2arg152 1 ) ( <= ( - 1 ) Nl2arg162 ) ( <= Nl2arg162 1 ) ))
(assert ( or ( and ( >= lam0n0 0 ) ( >= lam0n1 0 ) ( >= lam0n2 0 ) ( >= lam0n3 0 ) ( >= lam0n4 0 ) ( >= lam0n5 0 ) ( >= lam0n6 0 ) ( >= lam0n7 0 ) ( >= lam0n8 0 ) ( >= lam0n9 0 ) ( >= lam0n10 0 ) ( >= lam0n11 0 ) ( >= lam0n12 0 ) ( >= lam0n13 0 ) ( >= lam0n14 0 ) ( >= lam0n15 0 ) ( >= lam0n16 0 ) ( > ( + ( * 1 lam0n0 ) ( * 1 lam0n1 ) ( * 1 lam0n2 ) ( * 1 lam0n3 ) ( * 1 lam0n4 ) ( * 2 lam0n7 ) ( * 2 lam0n8 ) ( * 2 lam0n9 ) ( * 3 lam0n10 ) ( * 3 lam0n11 ) ( * 3 lam0n12 ) ( * 3 lam0n13 ) ( * ( - 4 ) lam0n14 ) ( * Nl2CT1 lam0n15 ) ( * Nl2CT2 lam0n16 ) ( - 1 ) ) 0 ) ( = ( + ( * ( - 1 ) lam0n0 ) ( * ( - 1 ) lam0n6 ) ( * ( - 1 ) lam0n10 ) ( * Nl2arg11 lam0n15 ) ( * Nl2arg12 lam0n16 ) ) 0 ) ( = ( + ( * ( - 1 ) lam0n7 ) ( * ( - 1 ) lam0n8 ) ( * ( - 1 ) lam0n9 ) ( * ( - 1 ) lam0n10 ) ( * ( - 1 ) lam0n11 ) ( * Nl2arg21 lam0n15 ) ( * Nl2arg22 lam0n16 ) ) 0 ) ( = ( + ( * 1 lam0n1 ) ( * 1 lam0n2 ) ( * Nl2arg31 lam0n15 ) ( * Nl2arg32 lam0n16 ) ) 0 ) ( = ( + ( * ( - 1 ) lam0n1 ) ( * ( - 1 ) lam0n3 ) ( * ( - 1 ) lam0n10 ) ( * 1 lam0n14 ) ( * Nl2arg41 lam0n15 ) ( * Nl2arg42 lam0n16 ) ) 0 ) ( = ( + ( * Nl2arg51 lam0n15 ) ( * Nl2arg52 lam0n16 ) ) 0 ) ( = ( + ( * 1 lam0n7 ) ( * Nl2arg61 lam0n15 ) ( * Nl2arg62 lam0n16 ) ) 0 ) ( = ( + ( * 1 lam0n8 ) ( * 1 lam0n10 ) ( * Nl2arg71 lam0n15 ) ( * Nl2arg72 lam0n16 ) ) 0 ) ( = ( + ( * Nl2arg81 lam0n15 ) ( * Nl2arg82 lam0n16 ) ) 0 ) ( = ( + ( * Nl2arg91 lam0n15 ) ( * Nl2arg92 lam0n16 ) ) 0 ) ( = ( + ( * Nl2arg101 lam0n15 ) ( * Nl2arg102 lam0n16 ) ) 0 ) ( = ( + ( * Nl2arg111 lam0n15 ) ( * Nl2arg112 lam0n16 ) ) 0 ) ( = ( + ( * Nl2arg121 lam0n15 ) ( * Nl2arg122 lam0n16 ) ) 0 ) ( = ( + ( * Nl2arg131 lam0n15 ) ( * Nl2arg132 lam0n16 ) ) 0 ) ( = ( + ( * Nl2arg141 lam0n15 ) ( * Nl2arg142 lam0n16 ) ) 0 ) ( = ( + ( * Nl2arg151 lam0n15 ) ( * Nl2arg152 lam0n16 ) ) 0 ) ( = ( + ( * Nl2arg161 lam0n15 ) ( * Nl2arg162 lam0n16 ) ) 0 ) ( = ( + ( * ( - 1 ) lam0n4 ) ( * 1 lam0n6 ) ( * 1 lam0n9 ) ) 0 ) ( = ( * ( - 1 ) lam0n12 ) 0 ) ( = ( * ( - 1 ) lam0n2 ) 0 ) ( = ( * ( - 1 ) lam0n13 ) 0 ) ) ( and ( >= lam1n0 0 ) ( >= lam1n1 0 ) ( >= lam1n2 0 ) ( >= lam1n3 0 ) ( >= lam1n4 0 ) ( >= lam1n5 0 ) ( >= lam1n6 0 ) ( >= lam1n7 0 ) ( >= lam1n8 0 ) ( >= lam1n9 0 ) ( >= lam1n10 0 ) ( >= lam1n11 0 ) ( >= lam1n12 0 ) ( >= lam1n13 0 ) ( >= lam1n14 0 ) ( >= lam1n15 0 ) ( >= lam1n16 0 ) ( > ( + ( * 1 lam1n0 ) ( * 1 lam1n1 ) ( * 1 lam1n2 ) ( * 1 lam1n3 ) ( * 1 lam1n4 ) ( * 2 lam1n7 ) ( * 2 lam1n8 ) ( * 2 lam1n9 ) ( * 3 lam1n10 ) ( * 3 lam1n11 ) ( * 3 lam1n12 ) ( * 3 lam1n13 ) ( * ( - 4 ) lam1n14 ) ( * Nl2CT1 lam1n15 ) ( * Nl2CT2 lam1n16 ) ( - 1 ( + ( + ( + ( + ( + ( + ( + ( + ( + ( + ( + ( + ( + ( + ( + Nl2CT1 ( * Nl2arg11 0 ) ) ( * Nl2arg21 0 ) ) ( * Nl2arg31 1 ) ) ( * Nl2arg51 0 ) ) ( * Nl2arg61 0 ) ) ( * Nl2arg71 0 ) ) ( * Nl2arg81 0 ) ) ( * Nl2arg91 0 ) ) ( * Nl2arg101 0 ) ) ( * Nl2arg111 0 ) ) ( * Nl2arg121 0 ) ) ( * Nl2arg131 0 ) ) ( * Nl2arg141 0 ) ) ( * Nl2arg151 0 ) ) ( * Nl2arg161 0 ) ) ) ) 0 ) ( = ( + ( * ( - 1 ) lam1n0 ) ( * ( - 1 ) lam1n6 ) ( * ( - 1 ) lam1n10 ) ( * Nl2arg11 lam1n15 ) ( * Nl2arg12 lam1n16 ) ) 0 ) ( = ( + ( * ( - 1 ) lam1n7 ) ( * ( - 1 ) lam1n8 ) ( * ( - 1 ) lam1n9 ) ( * ( - 1 ) lam1n10 ) ( * ( - 1 ) lam1n11 ) ( * Nl2arg21 lam1n15 ) ( * Nl2arg22 lam1n16 ) ) 0 ) ( = ( + ( * 1 lam1n1 ) ( * 1 lam1n2 ) ( * Nl2arg31 lam1n15 ) ( * Nl2arg32 lam1n16 ) ( - ( + 0 ( * Nl2arg31 1 ) ) ) ) 0 ) ( = ( + ( * ( - 1 ) lam1n1 ) ( * ( - 1 ) lam1n3 ) ( * ( - 1 ) lam1n10 ) ( * 1 lam1n14 ) ( * Nl2arg41 lam1n15 ) ( * Nl2arg42 lam1n16 ) ( - ( + 0 Nl2arg41 ) ) ) 0 ) ( = ( + ( * Nl2arg51 lam1n15 ) ( * Nl2arg52 lam1n16 ) ) 0 ) ( = ( + ( * 1 lam1n7 ) ( * Nl2arg61 lam1n15 ) ( * Nl2arg62 lam1n16 ) ) 0 ) ( = ( + ( * 1 lam1n8 ) ( * 1 lam1n10 ) ( * Nl2arg71 lam1n15 ) ( * Nl2arg72 lam1n16 ) ) 0 ) ( = ( + ( * Nl2arg81 lam1n15 ) ( * Nl2arg82 lam1n16 ) ) 0 ) ( = ( + ( * Nl2arg91 lam1n15 ) ( * Nl2arg92 lam1n16 ) ) 0 ) ( = ( + ( * Nl2arg101 lam1n15 ) ( * Nl2arg102 lam1n16 ) ) 0 ) ( = ( + ( * Nl2arg111 lam1n15 ) ( * Nl2arg112 lam1n16 ) ) 0 ) ( = ( + ( * Nl2arg121 lam1n15 ) ( * Nl2arg122 lam1n16 ) ) 0 ) ( = ( + ( * Nl2arg131 lam1n15 ) ( * Nl2arg132 lam1n16 ) ) 0 ) ( = ( + ( * Nl2arg141 lam1n15 ) ( * Nl2arg142 lam1n16 ) ) 0 ) ( = ( + ( * Nl2arg151 lam1n15 ) ( * Nl2arg152 lam1n16 ) ) 0 ) ( = ( + ( * Nl2arg161 lam1n15 ) ( * Nl2arg162 lam1n16 ) ) 0 ) ( = ( + ( * ( - 1 ) lam1n4 ) ( * 1 lam1n6 ) ( * 1 lam1n9 ) ( - ( + 0 ( * Nl2arg11 1 ) ) ) ) 0 ) ( = ( + ( * ( - 1 ) lam1n12 ) ( - ( + 0 ( * Nl2arg21 1 ) ) ) ) 0 ) ( = ( + ( * ( - 1 ) lam1n2 ) ( - ( + 0 ( * Nl2arg51 1 ) ) ) ) 0 ) ( = ( - ( + 0 ( * Nl2arg61 1 ) ) ) 0 ) ( = ( - ( + 0 ( * Nl2arg71 1 ) ) ) 0 ) ( = ( - ( + 0 ( * Nl2arg81 1 ) ) ) 0 ) ( = ( - ( + 0 ( * Nl2arg91 1 ) ) ) 0 ) ( = ( - ( + 0 ( * Nl2arg101 1 ) ) ) 0 ) ( = ( - ( + 0 ( * Nl2arg111 1 ) ) ) 0 ) ( = ( - ( + 0 ( * Nl2arg121 1 ) ) ) 0 ) ( = ( - ( + 0 ( * Nl2arg131 1 ) ) ) 0 ) ( = ( - ( + 0 ( * Nl2arg141 1 ) ) ) 0 ) ( = ( - ( + 0 ( * Nl2arg151 1 ) ) ) 0 ) ( = ( - ( + 0 ( * Nl2arg161 1 ) ) ) 0 ) ( = ( * ( - 1 ) lam1n13 ) 0 ) ) ))
(assert ( or ( and ( >= lam0n0 0 ) ( >= lam0n1 0 ) ( >= lam0n2 0 ) ( >= lam0n3 0 ) ( >= lam0n4 0 ) ( >= lam0n5 0 ) ( >= lam0n6 0 ) ( >= lam0n7 0 ) ( >= lam0n8 0 ) ( >= lam0n9 0 ) ( >= lam0n10 0 ) ( >= lam0n11 0 ) ( >= lam0n12 0 ) ( >= lam0n13 0 ) ( >= lam0n14 0 ) ( >= lam0n15 0 ) ( >= lam0n16 0 ) ( > ( + ( * 1 lam0n0 ) ( * 1 lam0n1 ) ( * 1 lam0n2 ) ( * 1 lam0n3 ) ( * 1 lam0n4 ) ( * 2 lam0n7 ) ( * 2 lam0n8 ) ( * 2 lam0n9 ) ( * 3 lam0n10 ) ( * 3 lam0n11 ) ( * 3 lam0n12 ) ( * 3 lam0n13 ) ( * ( - 4 ) lam0n14 ) ( * Nl2CT1 lam0n15 ) ( * Nl2CT2 lam0n16 ) ( - 1 ) ) 0 ) ( = ( + ( * ( - 1 ) lam0n0 ) ( * ( - 1 ) lam0n6 ) ( * ( - 1 ) lam0n10 ) ( * Nl2arg11 lam0n15 ) ( * Nl2arg12 lam0n16 ) ) 0 ) ( = ( + ( * ( - 1 ) lam0n7 ) ( * ( - 1 ) lam0n8 ) ( * ( - 1 ) lam0n9 ) ( * ( - 1 ) lam0n10 ) ( * ( - 1 ) lam0n11 ) ( * Nl2arg21 lam0n15 ) ( * Nl2arg22 lam0n16 ) ) 0 ) ( = ( + ( * 1 lam0n1 ) ( * 1 lam0n2 ) ( * Nl2arg31 lam0n15 ) ( * Nl2arg32 lam0n16 ) ) 0 ) ( = ( + ( * ( - 1 ) lam0n1 ) ( * ( - 1 ) lam0n3 ) ( * ( - 1 ) lam0n10 ) ( * 1 lam0n14 ) ( * Nl2arg41 lam0n15 ) ( * Nl2arg42 lam0n16 ) ) 0 ) ( = ( + ( * Nl2arg51 lam0n15 ) ( * Nl2arg52 lam0n16 ) ) 0 ) ( = ( + ( * 1 lam0n7 ) ( * Nl2arg61 lam0n15 ) ( * Nl2arg62 lam0n16 ) ) 0 ) ( = ( + ( * 1 lam0n8 ) ( * 1 lam0n10 ) ( * Nl2arg71 lam0n15 ) ( * Nl2arg72 lam0n16 ) ) 0 ) ( = ( + ( * Nl2arg81 lam0n15 ) ( * Nl2arg82 lam0n16 ) ) 0 ) ( = ( + ( * Nl2arg91 lam0n15 ) ( * Nl2arg92 lam0n16 ) ) 0 ) ( = ( + ( * Nl2arg101 lam0n15 ) ( * Nl2arg102 lam0n16 ) ) 0 ) ( = ( + ( * Nl2arg111 lam0n15 ) ( * Nl2arg112 lam0n16 ) ) 0 ) ( = ( + ( * Nl2arg121 lam0n15 ) ( * Nl2arg122 lam0n16 ) ) 0 ) ( = ( + ( * Nl2arg131 lam0n15 ) ( * Nl2arg132 lam0n16 ) ) 0 ) ( = ( + ( * Nl2arg141 lam0n15 ) ( * Nl2arg142 lam0n16 ) ) 0 ) ( = ( + ( * Nl2arg151 lam0n15 ) ( * Nl2arg152 lam0n16 ) ) 0 ) ( = ( + ( * Nl2arg161 lam0n15 ) ( * Nl2arg162 lam0n16 ) ) 0 ) ( = ( + ( * ( - 1 ) lam0n4 ) ( * 1 lam0n6 ) ( * 1 lam0n9 ) ) 0 ) ( = ( * ( - 1 ) lam0n12 ) 0 ) ( = ( * ( - 1 ) lam0n2 ) 0 ) ( = ( * ( - 1 ) lam0n13 ) 0 ) ) ( and ( >= lam2n0 0 ) ( >= lam2n1 0 ) ( >= lam2n2 0 ) ( >= lam2n3 0 ) ( >= lam2n4 0 ) ( >= lam2n5 0 ) ( >= lam2n6 0 ) ( >= lam2n7 0 ) ( >= lam2n8 0 ) ( >= lam2n9 0 ) ( >= lam2n10 0 ) ( >= lam2n11 0 ) ( >= lam2n12 0 ) ( >= lam2n13 0 ) ( >= lam2n14 0 ) ( >= lam2n15 0 ) ( >= lam2n16 0 ) ( > ( + ( * 1 lam2n0 ) ( * 1 lam2n1 ) ( * 1 lam2n2 ) ( * 1 lam2n3 ) ( * 1 lam2n4 ) ( * 2 lam2n7 ) ( * 2 lam2n8 ) ( * 2 lam2n9 ) ( * 3 lam2n10 ) ( * 3 lam2n11 ) ( * 3 lam2n12 ) ( * 3 lam2n13 ) ( * ( - 4 ) lam2n14 ) ( * Nl2CT1 lam2n15 ) ( * Nl2CT2 lam2n16 ) ( - 1 ( + ( + ( + ( + ( + ( + ( + ( + ( + ( + ( + ( + ( + ( + ( + Nl2CT2 ( * Nl2arg12 0 ) ) ( * Nl2arg22 0 ) ) ( * Nl2arg32 1 ) ) ( * Nl2arg52 0 ) ) ( * Nl2arg62 0 ) ) ( * Nl2arg72 0 ) ) ( * Nl2arg82 0 ) ) ( * Nl2arg92 0 ) ) ( * Nl2arg102 0 ) ) ( * Nl2arg112 0 ) ) ( * Nl2arg122 0 ) ) ( * Nl2arg132 0 ) ) ( * Nl2arg142 0 ) ) ( * Nl2arg152 0 ) ) ( * Nl2arg162 0 ) ) ) ) 0 ) ( = ( + ( * ( - 1 ) lam2n0 ) ( * ( - 1 ) lam2n6 ) ( * ( - 1 ) lam2n10 ) ( * Nl2arg11 lam2n15 ) ( * Nl2arg12 lam2n16 ) ) 0 ) ( = ( + ( * ( - 1 ) lam2n7 ) ( * ( - 1 ) lam2n8 ) ( * ( - 1 ) lam2n9 ) ( * ( - 1 ) lam2n10 ) ( * ( - 1 ) lam2n11 ) ( * Nl2arg21 lam2n15 ) ( * Nl2arg22 lam2n16 ) ) 0 ) ( = ( + ( * 1 lam2n1 ) ( * 1 lam2n2 ) ( * Nl2arg31 lam2n15 ) ( * Nl2arg32 lam2n16 ) ( - ( + 0 ( * Nl2arg32 1 ) ) ) ) 0 ) ( = ( + ( * ( - 1 ) lam2n1 ) ( * ( - 1 ) lam2n3 ) ( * ( - 1 ) lam2n10 ) ( * 1 lam2n14 ) ( * Nl2arg41 lam2n15 ) ( * Nl2arg42 lam2n16 ) ( - ( + 0 Nl2arg42 ) ) ) 0 ) ( = ( + ( * Nl2arg51 lam2n15 ) ( * Nl2arg52 lam2n16 ) ) 0 ) ( = ( + ( * 1 lam2n7 ) ( * Nl2arg61 lam2n15 ) ( * Nl2arg62 lam2n16 ) ) 0 ) ( = ( + ( * 1 lam2n8 ) ( * 1 lam2n10 ) ( * Nl2arg71 lam2n15 ) ( * Nl2arg72 lam2n16 ) ) 0 ) ( = ( + ( * Nl2arg81 lam2n15 ) ( * Nl2arg82 lam2n16 ) ) 0 ) ( = ( + ( * Nl2arg91 lam2n15 ) ( * Nl2arg92 lam2n16 ) ) 0 ) ( = ( + ( * Nl2arg101 lam2n15 ) ( * Nl2arg102 lam2n16 ) ) 0 ) ( = ( + ( * Nl2arg111 lam2n15 ) ( * Nl2arg112 lam2n16 ) ) 0 ) ( = ( + ( * Nl2arg121 lam2n15 ) ( * Nl2arg122 lam2n16 ) ) 0 ) ( = ( + ( * Nl2arg131 lam2n15 ) ( * Nl2arg132 lam2n16 ) ) 0 ) ( = ( + ( * Nl2arg141 lam2n15 ) ( * Nl2arg142 lam2n16 ) ) 0 ) ( = ( + ( * Nl2arg151 lam2n15 ) ( * Nl2arg152 lam2n16 ) ) 0 ) ( = ( + ( * Nl2arg161 lam2n15 ) ( * Nl2arg162 lam2n16 ) ) 0 ) ( = ( + ( * ( - 1 ) lam2n4 ) ( * 1 lam2n6 ) ( * 1 lam2n9 ) ( - ( + 0 ( * Nl2arg12 1 ) ) ) ) 0 ) ( = ( + ( * ( - 1 ) lam2n12 ) ( - ( + 0 ( * Nl2arg22 1 ) ) ) ) 0 ) ( = ( + ( * ( - 1 ) lam2n2 ) ( - ( + 0 ( * Nl2arg52 1 ) ) ) ) 0 ) ( = ( - ( + 0 ( * Nl2arg62 1 ) ) ) 0 ) ( = ( - ( + 0 ( * Nl2arg72 1 ) ) ) 0 ) ( = ( - ( + 0 ( * Nl2arg82 1 ) ) ) 0 ) ( = ( - ( + 0 ( * Nl2arg92 1 ) ) ) 0 ) ( = ( - ( + 0 ( * Nl2arg102 1 ) ) ) 0 ) ( = ( - ( + 0 ( * Nl2arg112 1 ) ) ) 0 ) ( = ( - ( + 0 ( * Nl2arg122 1 ) ) ) 0 ) ( = ( - ( + 0 ( * Nl2arg132 1 ) ) ) 0 ) ( = ( - ( + 0 ( * Nl2arg142 1 ) ) ) 0 ) ( = ( - ( + 0 ( * Nl2arg152 1 ) ) ) 0 ) ( = ( - ( + 0 ( * Nl2arg162 1 ) ) ) 0 ) ( = ( * ( - 1 ) lam2n13 ) 0 ) ) ))
(assert ( and ( <= ( + 1 ( * ( - 1 ) undef1 ) ) 0 ) ( <= ( + 1 ( * ( - 1 ) undef4417 ) ) 0 ) ( <= ( + 1 ( * ( - 1 ) undef4418 ) ) 0 ) ( not ( <= 1 0 ) ) ( <= ( + undef1 ( * ( - 1 ) undef4417 ) ) 0 ) ( not ( <= ( + ( - 2 ) undef1 undef2 ( * ( - 1 ) undef7 ) undef4418 ) 0 ) ) ( <= ( + 3 ( * ( - 1 ) undef2 ) ) 0 ) ( <= ( + 3 ( * ( - 1 ) undef842 ) ) 0 ) ( <= ( + ( - 4 ) undef4418 ) 0 ) ( = arg3 0 ) ( = arg6 0 ) ( <= ( + ( + ( + ( + ( + ( + ( + ( + ( + ( + ( + ( + ( + ( + ( + Nl2CT1 ( * Nl2arg11 0 ) ) ( * Nl2arg21 0 ) ) ( * Nl2arg41 0 ) ) ( * Nl2arg51 0 ) ) ( * Nl2arg71 0 ) ) ( * Nl2arg81 0 ) ) ( * Nl2arg91 0 ) ) ( * Nl2arg101 0 ) ) ( * Nl2arg111 0 ) ) ( * Nl2arg121 0 ) ) ( * Nl2arg131 0 ) ) ( * Nl2arg141 0 ) ) ( * Nl2arg151 0 ) ) ( * Nl2arg161 0 ) ) ( * ( + 0 Nl2arg31 ) arg3 ) ( * ( + 0 Nl2arg61 ) arg6 ) ( * ( + 0 ( * Nl2arg11 1 ) ) undef1 ) ( * ( + 0 ( * Nl2arg21 1 ) ) undef2 ) ( * ( + 0 ( * Nl2arg51 1 ) ) undef5 ) ( * ( + 0 ( * Nl2arg71 1 ) ) undef7 ) ( * ( + 0 ( * Nl2arg81 1 ) ) undef8 ) ( * ( + 0 ( * Nl2arg91 1 ) ) undef9 ) ( * ( + 0 ( * Nl2arg101 1 ) ) undef10 ) ( * ( + 0 ( * Nl2arg111 1 ) ) undef11 ) ( * ( + 0 ( * Nl2arg121 1 ) ) undef12 ) ( * ( + 0 ( * Nl2arg131 1 ) ) undef13 ) ( * ( + 0 ( * Nl2arg141 1 ) ) undef14 ) ( * ( + 0 ( * Nl2arg151 1 ) ) undef15 ) ( * ( + 0 ( * Nl2arg161 1 ) ) undef16 ) ( * ( + 0 ( * Nl2arg41 1 ) ) undef4418 ) ) 0 ) ( <= ( + ( + ( + ( + ( + ( + ( + ( + ( + ( + ( + ( + ( + ( + ( + Nl2CT2 ( * Nl2arg12 0 ) ) ( * Nl2arg22 0 ) ) ( * Nl2arg42 0 ) ) ( * Nl2arg52 0 ) ) ( * Nl2arg72 0 ) ) ( * Nl2arg82 0 ) ) ( * Nl2arg92 0 ) ) ( * Nl2arg102 0 ) ) ( * Nl2arg112 0 ) ) ( * Nl2arg122 0 ) ) ( * Nl2arg132 0 ) ) ( * Nl2arg142 0 ) ) ( * Nl2arg152 0 ) ) ( * Nl2arg162 0 ) ) ( * ( + 0 Nl2arg32 ) arg3 ) ( * ( + 0 Nl2arg62 ) arg6 ) ( * ( + 0 ( * Nl2arg12 1 ) ) undef1 ) ( * ( + 0 ( * Nl2arg22 1 ) ) undef2 ) ( * ( + 0 ( * Nl2arg52 1 ) ) undef5 ) ( * ( + 0 ( * Nl2arg72 1 ) ) undef7 ) ( * ( + 0 ( * Nl2arg82 1 ) ) undef8 ) ( * ( + 0 ( * Nl2arg92 1 ) ) undef9 ) ( * ( + 0 ( * Nl2arg102 1 ) ) undef10 ) ( * ( + 0 ( * Nl2arg112 1 ) ) undef11 ) ( * ( + 0 ( * Nl2arg122 1 ) ) undef12 ) ( * ( + 0 ( * Nl2arg132 1 ) ) undef13 ) ( * ( + 0 ( * Nl2arg142 1 ) ) undef14 ) ( * ( + 0 ( * Nl2arg152 1 ) ) undef15 ) ( * ( + 0 ( * Nl2arg162 1 ) ) undef16 ) ( * ( + 0 ( * Nl2arg42 1 ) ) undef4418 ) ) 0 ) ))
(assert ( or ( or ( and ( >= lam5n0 0 ) ( >= lam5n1 0 ) ( >= lam5n2 0 ) ( >= lam5n3 0 ) ( >= lam5n4 0 ) ( >= lam5n5 0 ) ( >= lam5n6 0 ) ( >= lam5n7 0 ) ( >= lam5n8 0 ) ( >= lam5n9 0 ) ( >= lam5n10 0 ) ( > ( + ( * 1 lam5n0 ) ( * 1 lam5n1 ) ( * 1 lam5n2 ) ( * 1 lam5n3 ) ( * 2 lam5n4 ) ( * 2 lam5n5 ) ( * 3 lam5n6 ) ( * 3 lam5n7 ) ( * ( - 4 ) lam5n8 ) ( * Nl2CT1 lam5n9 ) ( * Nl2CT2 lam5n10 ) ( - 1 ) ) 0 ) ( = ( + ( * ( - 1 ) lam5n0 ) ( * Nl2arg11 lam5n9 ) ( * Nl2arg12 lam5n10 ) ) 0 ) ( = ( + ( * ( - 1 ) lam5n4 ) ( * ( - 1 ) lam5n5 ) ( * ( - 1 ) lam5n6 ) ( * Nl2arg21 lam5n9 ) ( * Nl2arg22 lam5n10 ) ) 0 ) ( = ( + ( * 1 lam5n1 ) ( * 1 lam5n2 ) ( * Nl2arg31 lam5n9 ) ( * Nl2arg32 lam5n10 ) ) 0 ) ( = ( + ( * ( - 1 ) lam5n1 ) ( * ( - 1 ) lam5n3 ) ( * 1 lam5n8 ) ( * Nl2arg41 lam5n9 ) ( * Nl2arg42 lam5n10 ) ) 0 ) ( = ( + ( * ( - 1 ) lam5n2 ) ( * Nl2arg51 lam5n9 ) ( * Nl2arg52 lam5n10 ) ) 0 ) ( = ( + ( * 1 lam5n4 ) ( * Nl2arg61 lam5n9 ) ( * Nl2arg62 lam5n10 ) ) 0 ) ( = ( + ( * 1 lam5n5 ) ( * Nl2arg71 lam5n9 ) ( * Nl2arg72 lam5n10 ) ) 0 ) ( = ( + ( * Nl2arg81 lam5n9 ) ( * Nl2arg82 lam5n10 ) ) 0 ) ( = ( + ( * Nl2arg91 lam5n9 ) ( * Nl2arg92 lam5n10 ) ) 0 ) ( = ( + ( * Nl2arg101 lam5n9 ) ( * Nl2arg102 lam5n10 ) ) 0 ) ( = ( + ( * Nl2arg111 lam5n9 ) ( * Nl2arg112 lam5n10 ) ) 0 ) ( = ( + ( * Nl2arg121 lam5n9 ) ( * Nl2arg122 lam5n10 ) ) 0 ) ( = ( + ( * Nl2arg131 lam5n9 ) ( * Nl2arg132 lam5n10 ) ) 0 ) ( = ( + ( * Nl2arg141 lam5n9 ) ( * Nl2arg142 lam5n10 ) ) 0 ) ( = ( + ( * Nl2arg151 lam5n9 ) ( * Nl2arg152 lam5n10 ) ) 0 ) ( = ( + ( * Nl2arg161 lam5n9 ) ( * Nl2arg162 lam5n10 ) ) 0 ) ( = ( * ( - 1 ) lam5n7 ) 0 ) ) ( and ( >= lam6n0 0 ) ( >= lam6n1 0 ) ( >= lam6n2 0 ) ( >= lam6n3 0 ) ( >= lam6n4 0 ) ( >= lam6n5 0 ) ( >= lam6n6 0 ) ( >= lam6n7 0 ) ( >= lam6n8 0 ) ( >= lam6n9 0 ) ( >= lam6n10 0 ) ( > ( + ( * 1 lam6n0 ) ( * 1 lam6n1 ) ( * 1 lam6n2 ) ( * 1 lam6n3 ) ( * 2 lam6n4 ) ( * 2 lam6n5 ) ( * 3 lam6n6 ) ( * 3 lam6n7 ) ( * ( - 4 ) lam6n8 ) ( * Nl2CT1 lam6n9 ) ( * Nl2CT2 lam6n10 ) ( - 1 ) ) 0 ) ( = ( + ( * ( - 1 ) lam6n0 ) ( * Nl2arg11 lam6n9 ) ( * Nl2arg12 lam6n10 ) ) 0 ) ( = ( + ( * ( - 1 ) lam6n4 ) ( * ( - 1 ) lam6n5 ) ( * ( - 1 ) lam6n6 ) ( * Nl2arg21 lam6n9 ) ( * Nl2arg22 lam6n10 ) ) 0 ) ( = ( + ( * 1 lam6n1 ) ( * 1 lam6n2 ) ( * Nl2arg31 lam6n9 ) ( * Nl2arg32 lam6n10 ) ) 0 ) ( = ( + ( * ( - 1 ) lam6n1 ) ( * ( - 1 ) lam6n3 ) ( * 1 lam6n8 ) ( * Nl2arg41 lam6n9 ) ( * Nl2arg42 lam6n10 ) ) 0 ) ( = ( + ( * ( - 1 ) lam6n2 ) ( * Nl2arg51 lam6n9 ) ( * Nl2arg52 lam6n10 ) ) 0 ) ( = ( + ( * 1 lam6n4 ) ( * Nl2arg61 lam6n9 ) ( * Nl2arg62 lam6n10 ) ) 0 ) ( = ( + ( * 1 lam6n5 ) ( * Nl2arg71 lam6n9 ) ( * Nl2arg72 lam6n10 ) ) 0 ) ( = ( + ( * Nl2arg81 lam6n9 ) ( * Nl2arg82 lam6n10 ) ) 0 ) ( = ( + ( * Nl2arg91 lam6n9 ) ( * Nl2arg92 lam6n10 ) ) 0 ) ( = ( + ( * Nl2arg101 lam6n9 ) ( * Nl2arg102 lam6n10 ) ) 0 ) ( = ( + ( * Nl2arg111 lam6n9 ) ( * Nl2arg112 lam6n10 ) ) 0 ) ( = ( + ( * Nl2arg121 lam6n9 ) ( * Nl2arg122 lam6n10 ) ) 0 ) ( = ( + ( * Nl2arg131 lam6n9 ) ( * Nl2arg132 lam6n10 ) ) 0 ) ( = ( + ( * Nl2arg141 lam6n9 ) ( * Nl2arg142 lam6n10 ) ) 0 ) ( = ( + ( * Nl2arg151 lam6n9 ) ( * Nl2arg152 lam6n10 ) ) 0 ) ( = ( + ( * Nl2arg161 lam6n9 ) ( * Nl2arg162 lam6n10 ) ) 0 ) ( = ( * ( - 1 ) lam6n7 ) 0 ) ) ) ( and ( and ( and ( >= lam3n0 0 ) ( >= lam3n1 0 ) ( >= lam3n2 0 ) ( >= lam3n3 0 ) ( >= lam3n4 0 ) ( >= lam3n5 0 ) ( >= lam3n6 0 ) ( >= lam3n7 0 ) ( >= lam3n8 0 ) ( > ( + ( * 1 lam3n0 ) ( * 1 lam3n1 ) ( * 1 lam3n2 ) ( * 3 lam3n5 ) ( * 3 lam3n6 ) ( * 3 lam3n7 ) ( * ( - 4 ) lam3n8 ) ( - 1 ( + ( + ( + ( + ( + ( + ( + ( + ( + ( + ( + ( + ( + ( + Nl2CT1 ( * Nl2arg11 0 ) ) ( * Nl2arg21 0 ) ) ( * Nl2arg41 0 ) ) ( * Nl2arg51 0 ) ) ( * Nl2arg71 0 ) ) ( * Nl2arg81 0 ) ) ( * Nl2arg91 0 ) ) ( * Nl2arg101 0 ) ) ( * Nl2arg111 0 ) ) ( * Nl2arg121 0 ) ) ( * Nl2arg131 0 ) ) ( * Nl2arg141 0 ) ) ( * Nl2arg151 0 ) ) ( * Nl2arg161 0 ) ) ) ) 0 ) ( = ( + ( * 1 lam3n9 ) ( - ( + 0 Nl2arg31 ) ) ) 0 ) ( = ( + ( * 1 lam3n10 ) ( - ( + 0 Nl2arg61 ) ) ) 0 ) ( = ( + ( * ( - 1 ) lam3n0 ) ( * 1 lam3n4 ) ( * ( - 1 ) lam3n5 ) ( - ( + 0 ( * Nl2arg11 1 ) ) ) ) 0 ) ( = ( + ( * ( - 1 ) lam3n5 ) ( * ( - 1 ) lam3n6 ) ( - ( + 0 ( * Nl2arg21 1 ) ) ) ) 0 ) ( = ( - ( + 0 ( * Nl2arg51 1 ) ) ) 0 ) ( = ( + ( * 1 lam3n5 ) ( - ( + 0 ( * Nl2arg71 1 ) ) ) ) 0 ) ( = ( - ( + 0 ( * Nl2arg81 1 ) ) ) 0 ) ( = ( - ( + 0 ( * Nl2arg91 1 ) ) ) 0 ) ( = ( - ( + 0 ( * Nl2arg101 1 ) ) ) 0 ) ( = ( - ( + 0 ( * Nl2arg111 1 ) ) ) 0 ) ( = ( - ( + 0 ( * Nl2arg121 1 ) ) ) 0 ) ( = ( - ( + 0 ( * Nl2arg131 1 ) ) ) 0 ) ( = ( - ( + 0 ( * Nl2arg141 1 ) ) ) 0 ) ( = ( - ( + 0 ( * Nl2arg151 1 ) ) ) 0 ) ( = ( - ( + 0 ( * Nl2arg161 1 ) ) ) 0 ) ( = ( * ( - 1 ) lam3n7 ) 0 ) ( = ( + ( * ( - 1 ) lam3n1 ) ( * ( - 1 ) lam3n4 ) ) 0 ) ( = ( + ( * ( - 1 ) lam3n2 ) ( * ( - 1 ) lam3n5 ) ( * 1 lam3n8 ) ( - ( + 0 ( * Nl2arg41 1 ) ) ) ) 0 ) ) ( and ( >= lam4n0 0 ) ( >= lam4n1 0 ) ( >= lam4n2 0 ) ( >= lam4n3 0 ) ( >= lam4n4 0 ) ( >= lam4n5 0 ) ( >= lam4n6 0 ) ( >= lam4n7 0 ) ( >= lam4n8 0 ) ( > ( + ( * 1 lam4n0 ) ( * 1 lam4n1 ) ( * 1 lam4n2 ) ( * 3 lam4n5 ) ( * 3 lam4n6 ) ( * 3 lam4n7 ) ( * ( - 4 ) lam4n8 ) ( - 1 ( + ( + ( + ( + ( + ( + ( + ( + ( + ( + ( + ( + ( + ( + Nl2CT2 ( * Nl2arg12 0 ) ) ( * Nl2arg22 0 ) ) ( * Nl2arg42 0 ) ) ( * Nl2arg52 0 ) ) ( * Nl2arg72 0 ) ) ( * Nl2arg82 0 ) ) ( * Nl2arg92 0 ) ) ( * Nl2arg102 0 ) ) ( * Nl2arg112 0 ) ) ( * Nl2arg122 0 ) ) ( * Nl2arg132 0 ) ) ( * Nl2arg142 0 ) ) ( * Nl2arg152 0 ) ) ( * Nl2arg162 0 ) ) ) ) 0 ) ( = ( + ( * 1 lam4n9 ) ( - ( + 0 Nl2arg32 ) ) ) 0 ) ( = ( + ( * 1 lam4n10 ) ( - ( + 0 Nl2arg62 ) ) ) 0 ) ( = ( + ( * ( - 1 ) lam4n0 ) ( * 1 lam4n4 ) ( * ( - 1 ) lam4n5 ) ( - ( + 0 ( * Nl2arg12 1 ) ) ) ) 0 ) ( = ( + ( * ( - 1 ) lam4n5 ) ( * ( - 1 ) lam4n6 ) ( - ( + 0 ( * Nl2arg22 1 ) ) ) ) 0 ) ( = ( - ( + 0 ( * Nl2arg52 1 ) ) ) 0 ) ( = ( + ( * 1 lam4n5 ) ( - ( + 0 ( * Nl2arg72 1 ) ) ) ) 0 ) ( = ( - ( + 0 ( * Nl2arg82 1 ) ) ) 0 ) ( = ( - ( + 0 ( * Nl2arg92 1 ) ) ) 0 ) ( = ( - ( + 0 ( * Nl2arg102 1 ) ) ) 0 ) ( = ( - ( + 0 ( * Nl2arg112 1 ) ) ) 0 ) ( = ( - ( + 0 ( * Nl2arg122 1 ) ) ) 0 ) ( = ( - ( + 0 ( * Nl2arg132 1 ) ) ) 0 ) ( = ( - ( + 0 ( * Nl2arg142 1 ) ) ) 0 ) ( = ( - ( + 0 ( * Nl2arg152 1 ) ) ) 0 ) ( = ( - ( + 0 ( * Nl2arg162 1 ) ) ) 0 ) ( = ( * ( - 1 ) lam4n7 ) 0 ) ( = ( + ( * ( - 1 ) lam4n1 ) ( * ( - 1 ) lam4n4 ) ) 0 ) ( = ( + ( * ( - 1 ) lam4n2 ) ( * ( - 1 ) lam4n5 ) ( * 1 lam4n8 ) ( - ( + 0 ( * Nl2arg42 1 ) ) ) ) 0 ) ) ) ( and ( >= lam0n0 0 ) ( >= lam0n1 0 ) ( >= lam0n2 0 ) ( >= lam0n3 0 ) ( >= lam0n4 0 ) ( >= lam0n5 0 ) ( >= lam0n6 0 ) ( >= lam0n7 0 ) ( >= lam0n8 0 ) ( >= lam0n9 0 ) ( >= lam0n10 0 ) ( >= lam0n11 0 ) ( >= lam0n12 0 ) ( >= lam0n13 0 ) ( >= lam0n14 0 ) ( >= lam0n15 0 ) ( >= lam0n16 0 ) ( > ( + ( * 1 lam0n0 ) ( * 1 lam0n1 ) ( * 1 lam0n2 ) ( * 1 lam0n3 ) ( * 1 lam0n4 ) ( * 2 lam0n7 ) ( * 2 lam0n8 ) ( * 2 lam0n9 ) ( * 3 lam0n10 ) ( * 3 lam0n11 ) ( * 3 lam0n12 ) ( * 3 lam0n13 ) ( * ( - 4 ) lam0n14 ) ( * Nl2CT1 lam0n15 ) ( * Nl2CT2 lam0n16 ) ( - 1 ) ) 0 ) ( = ( + ( * ( - 1 ) lam0n0 ) ( * ( - 1 ) lam0n6 ) ( * ( - 1 ) lam0n10 ) ( * Nl2arg11 lam0n15 ) ( * Nl2arg12 lam0n16 ) ) 0 ) ( = ( + ( * ( - 1 ) lam0n7 ) ( * ( - 1 ) lam0n8 ) ( * ( - 1 ) lam0n9 ) ( * ( - 1 ) lam0n10 ) ( * ( - 1 ) lam0n11 ) ( * Nl2arg21 lam0n15 ) ( * Nl2arg22 lam0n16 ) ) 0 ) ( = ( + ( * 1 lam0n1 ) ( * 1 lam0n2 ) ( * Nl2arg31 lam0n15 ) ( * Nl2arg32 lam0n16 ) ) 0 ) ( = ( + ( * ( - 1 ) lam0n1 ) ( * ( - 1 ) lam0n3 ) ( * ( - 1 ) lam0n10 ) ( * 1 lam0n14 ) ( * Nl2arg41 lam0n15 ) ( * Nl2arg42 lam0n16 ) ) 0 ) ( = ( + ( * Nl2arg51 lam0n15 ) ( * Nl2arg52 lam0n16 ) ) 0 ) ( = ( + ( * 1 lam0n7 ) ( * Nl2arg61 lam0n15 ) ( * Nl2arg62 lam0n16 ) ) 0 ) ( = ( + ( * 1 lam0n8 ) ( * 1 lam0n10 ) ( * Nl2arg71 lam0n15 ) ( * Nl2arg72 lam0n16 ) ) 0 ) ( = ( + ( * Nl2arg81 lam0n15 ) ( * Nl2arg82 lam0n16 ) ) 0 ) ( = ( + ( * Nl2arg91 lam0n15 ) ( * Nl2arg92 lam0n16 ) ) 0 ) ( = ( + ( * Nl2arg101 lam0n15 ) ( * Nl2arg102 lam0n16 ) ) 0 ) ( = ( + ( * Nl2arg111 lam0n15 ) ( * Nl2arg112 lam0n16 ) ) 0 ) ( = ( + ( * Nl2arg121 lam0n15 ) ( * Nl2arg122 lam0n16 ) ) 0 ) ( = ( + ( * Nl2arg131 lam0n15 ) ( * Nl2arg132 lam0n16 ) ) 0 ) ( = ( + ( * Nl2arg141 lam0n15 ) ( * Nl2arg142 lam0n16 ) ) 0 ) ( = ( + ( * Nl2arg151 lam0n15 ) ( * Nl2arg152 lam0n16 ) ) 0 ) ( = ( + ( * Nl2arg161 lam0n15 ) ( * Nl2arg162 lam0n16 ) ) 0 ) ( = ( + ( * ( - 1 ) lam0n4 ) ( * 1 lam0n6 ) ( * 1 lam0n9 ) ) 0 ) ( = ( * ( - 1 ) lam0n12 ) 0 ) ( = ( * ( - 1 ) lam0n2 ) 0 ) ( = ( * ( - 1 ) lam0n13 ) 0 ) ) ) ))
(check-sat)
(exit)
